ZEBRE 23 5 62 1
5 5 5 5 5 5 5 5 5 5 5 5 5 5 5 5 5 5 5 5 5 5 5
2 16 10 1 5
0 0 0
1 1 0
2 2 0
3 3 0
4 4 0
2 15 8 1 5
0 0 0
1 1 0
2 2 0
3 3 0
4 4 0
2 18 0 1 5
0 0 0
1 1 0
2 2 0
3 3 0
4 4 0
2 17 19 1 5
0 0 0
1 1 0
2 2 0
3 3 0
4 4 0
2 14 21 1 5
0 0 0
1 1 0
2 2 0
3 3 0
4 4 0
2 1 5 1 5
0 0 0
1 1 0
2 2 0
3 3 0
4 4 0
2 2 12 1 5
0 0 0
1 1 0
2 2 0
3 3 0
4 4 0
2 4 20 1 5
0 0 0
1 1 0
2 2 0
3 3 0
4 4 0
2 14 13 1 4
1 0 0
2 1 0
3 2 0
4 3 0
1 11 1 1
1 0
2 6 3 1 8
0 1 0
1 0 0
1 2 0
2 1 0
2 3 0
3 2 0
3 4 0
4 3 0
2 7 2 1 8
0 1 0
1 0 0
1 2 0
2 1 0
2 3 0
3 2 0
3 4 0
4 3 0
2 10 11 1 20
0 1 0
0 2 0
0 3 0
0 4 0
1 0 0
1 2 0
1 3 0
1 4 0
2 0 0
2 1 0
2 3 0
2 4 0
3 0 0
3 1 0
3 2 0
3 4 0
4 0 0
4 1 0
4 2 0
4 3 0
2 10 12 1 20
0 1 0
0 2 0
0 3 0
0 4 0
1 0 0
1 2 0
1 3 0
1 4 0
2 0 0
2 1 0
2 3 0
2 4 0
3 0 0
3 1 0
3 2 0
3 4 0
4 0 0
4 1 0
4 2 0
4 3 0
2 10 13 1 20
0 1 0
0 2 0
0 3 0
0 4 0
1 0 0
1 2 0
1 3 0
1 4 0
2 0 0
2 1 0
2 3 0
2 4 0
3 0 0
3 1 0
3 2 0
3 4 0
4 0 0
4 1 0
4 2 0
4 3 0
2 10 14 1 20
0 1 0
0 2 0
0 3 0
0 4 0
1 0 0
1 2 0
1 3 0
1 4 0
2 0 0
2 1 0
2 3 0
2 4 0
3 0 0
3 1 0
3 2 0
3 4 0
4 0 0
4 1 0
4 2 0
4 3 0
2 11 12 1 20
0 1 0
0 2 0
0 3 0
0 4 0
1 0 0
1 2 0
1 3 0
1 4 0
2 0 0
2 1 0
2 3 0
2 4 0
3 0 0
3 1 0
3 2 0
3 4 0
4 0 0
4 1 0
4 2 0
4 3 0
2 11 13 1 20
0 1 0
0 2 0
0 3 0
0 4 0
1 0 0
1 2 0
1 3 0
1 4 0
2 0 0
2 1 0
2 3 0
2 4 0
3 0 0
3 1 0
3 2 0
3 4 0
4 0 0
4 1 0
4 2 0
4 3 0
2 11 14 1 20
0 1 0
0 2 0
0 3 0
0 4 0
1 0 0
1 2 0
1 3 0
1 4 0
2 0 0
2 1 0
2 3 0
2 4 0
3 0 0
3 1 0
3 2 0
3 4 0
4 0 0
4 1 0
4 2 0
4 3 0
2 12 13 1 20
0 1 0
0 2 0
0 3 0
0 4 0
1 0 0
1 2 0
1 3 0
1 4 0
2 0 0
2 1 0
2 3 0
2 4 0
3 0 0
3 1 0
3 2 0
3 4 0
4 0 0
4 1 0
4 2 0
4 3 0
2 12 14 1 20
0 1 0
0 2 0
0 3 0
0 4 0
1 0 0
1 2 0
1 3 0
1 4 0
2 0 0
2 1 0
2 3 0
2 4 0
3 0 0
3 1 0
3 2 0
3 4 0
4 0 0
4 1 0
4 2 0
4 3 0
2 13 14 1 20
0 1 0
0 2 0
0 3 0
0 4 0
1 0 0
1 2 0
1 3 0
1 4 0
2 0 0
2 1 0
2 3 0
2 4 0
3 0 0
3 1 0
3 2 0
3 4 0
4 0 0
4 1 0
4 2 0
4 3 0
2 16 15 1 20
0 1 0
0 2 0
0 3 0
0 4 0
1 0 0
1 2 0
1 3 0
1 4 0
2 0 0
2 1 0
2 3 0
2 4 0
3 0 0
3 1 0
3 2 0
3 4 0
4 0 0
4 1 0
4 2 0
4 3 0
2 16 18 1 20
0 1 0
0 2 0
0 3 0
0 4 0
1 0 0
1 2 0
1 3 0
1 4 0
2 0 0
2 1 0
2 3 0
2 4 0
3 0 0
3 1 0
3 2 0
3 4 0
4 0 0
4 1 0
4 2 0
4 3 0
1 16 1 4
1 0
2 0
3 0
4 0
2 16 17 1 20
0 1 0
0 2 0
0 3 0
0 4 0
1 0 0
1 2 0
1 3 0
1 4 0
2 0 0
2 1 0
2 3 0
2 4 0
3 0 0
3 1 0
3 2 0
3 4 0
4 0 0
4 1 0
4 2 0
4 3 0
2 15 18 1 20
0 1 0
0 2 0
0 3 0
0 4 0
1 0 0
1 2 0
1 3 0
1 4 0
2 0 0
2 1 0
2 3 0
2 4 0
3 0 0
3 1 0
3 2 0
3 4 0
4 0 0
4 1 0
4 2 0
4 3 0
1 15 1 4
1 0
2 0
3 0
4 0
2 15 17 1 20
0 1 0
0 2 0
0 3 0
0 4 0
1 0 0
1 2 0
1 3 0
1 4 0
2 0 0
2 1 0
2 3 0
2 4 0
3 0 0
3 1 0
3 2 0
3 4 0
4 0 0
4 1 0
4 2 0
4 3 0
1 18 1 4
1 0
2 0
3 0
4 0
2 18 17 1 20
0 1 0
0 2 0
0 3 0
0 4 0
1 0 0
1 2 0
1 3 0
1 4 0
2 0 0
2 1 0
2 3 0
2 4 0
3 0 0
3 1 0
3 2 0
3 4 0
4 0 0
4 1 0
4 2 0
4 3 0
1 17 1 4
1 0
2 0
3 0
4 0
2 0 1 1 20
0 1 0
0 2 0
0 3 0
0 4 0
1 0 0
1 2 0
1 3 0
1 4 0
2 0 0
2 1 0
2 3 0
2 4 0
3 0 0
3 1 0
3 2 0
3 4 0
4 0 0
4 1 0
4 2 0
4 3 0
2 0 2 1 20
0 1 0
0 2 0
0 3 0
0 4 0
1 0 0
1 2 0
1 3 0
1 4 0
2 0 0
2 1 0
2 3 0
2 4 0
3 0 0
3 1 0
3 2 0
3 4 0
4 0 0
4 1 0
4 2 0
4 3 0
2 0 3 1 20
0 1 0
0 2 0
0 3 0
0 4 0
1 0 0
1 2 0
1 3 0
1 4 0
2 0 0
2 1 0
2 3 0
2 4 0
3 0 0
3 1 0
3 2 0
3 4 0
4 0 0
4 1 0
4 2 0
4 3 0
2 0 4 1 20
0 1 0
0 2 0
0 3 0
0 4 0
1 0 0
1 2 0
1 3 0
1 4 0
2 0 0
2 1 0
2 3 0
2 4 0
3 0 0
3 1 0
3 2 0
3 4 0
4 0 0
4 1 0
4 2 0
4 3 0
2 1 2 1 20
0 1 0
0 2 0
0 3 0
0 4 0
1 0 0
1 2 0
1 3 0
1 4 0
2 0 0
2 1 0
2 3 0
2 4 0
3 0 0
3 1 0
3 2 0
3 4 0
4 0 0
4 1 0
4 2 0
4 3 0
2 1 3 1 20
0 1 0
0 2 0
0 3 0
0 4 0
1 0 0
1 2 0
1 3 0
1 4 0
2 0 0
2 1 0
2 3 0
2 4 0
3 0 0
3 1 0
3 2 0
3 4 0
4 0 0
4 1 0
4 2 0
4 3 0
2 1 4 1 20
0 1 0
0 2 0
0 3 0
0 4 0
1 0 0
1 2 0
1 3 0
1 4 0
2 0 0
2 1 0
2 3 0
2 4 0
3 0 0
3 1 0
3 2 0
3 4 0
4 0 0
4 1 0
4 2 0
4 3 0
2 2 3 1 20
0 1 0
0 2 0
0 3 0
0 4 0
1 0 0
1 2 0
1 3 0
1 4 0
2 0 0
2 1 0
2 3 0
2 4 0
3 0 0
3 1 0
3 2 0
3 4 0
4 0 0
4 1 0
4 2 0
4 3 0
2 2 4 1 20
0 1 0
0 2 0
0 3 0
0 4 0
1 0 0
1 2 0
1 3 0
1 4 0
2 0 0
2 1 0
2 3 0
2 4 0
3 0 0
3 1 0
3 2 0
3 4 0
4 0 0
4 1 0
4 2 0
4 3 0
2 3 4 1 20
0 1 0
0 2 0
0 3 0
0 4 0
1 0 0
1 2 0
1 3 0
1 4 0
2 0 0
2 1 0
2 3 0
2 4 0
3 0 0
3 1 0
3 2 0
3 4 0
4 0 0
4 1 0
4 2 0
4 3 0
2 19 20 1 20
0 1 0
0 2 0
0 3 0
0 4 0
1 0 0
1 2 0
1 3 0
1 4 0
2 0 0
2 1 0
2 3 0
2 4 0
3 0 0
3 1 0
3 2 0
3 4 0
4 0 0
4 1 0
4 2 0
4 3 0
2 19 21 1 20
0 1 0
0 2 0
0 3 0
0 4 0
1 0 0
1 2 0
1 3 0
1 4 0
2 0 0
2 1 0
2 3 0
2 4 0
3 0 0
3 1 0
3 2 0
3 4 0
4 0 0
4 1 0
4 2 0
4 3 0
1 19 1 4
0 0
1 0
3 0
4 0
2 19 22 1 20
0 1 0
0 2 0
0 3 0
0 4 0
1 0 0
1 2 0
1 3 0
1 4 0
2 0 0
2 1 0
2 3 0
2 4 0
3 0 0
3 1 0
3 2 0
3 4 0
4 0 0
4 1 0
4 2 0
4 3 0
2 20 21 1 20
0 1 0
0 2 0
0 3 0
0 4 0
1 0 0
1 2 0
1 3 0
1 4 0
2 0 0
2 1 0
2 3 0
2 4 0
3 0 0
3 1 0
3 2 0
3 4 0
4 0 0
4 1 0
4 2 0
4 3 0
1 20 1 4
0 0
1 0
3 0
4 0
2 20 22 1 20
0 1 0
0 2 0
0 3 0
0 4 0
1 0 0
1 2 0
1 3 0
1 4 0
2 0 0
2 1 0
2 3 0
2 4 0
3 0 0
3 1 0
3 2 0
3 4 0
4 0 0
4 1 0
4 2 0
4 3 0
1 21 1 4
0 0
1 0
3 0
4 0
2 21 22 1 20
0 1 0
0 2 0
0 3 0
0 4 0
1 0 0
1 2 0
1 3 0
1 4 0
2 0 0
2 1 0
2 3 0
2 4 0
3 0 0
3 1 0
3 2 0
3 4 0
4 0 0
4 1 0
4 2 0
4 3 0
1 22 1 4
0 0
1 0
3 0
4 0
2 8 5 1 20
0 1 0
0 2 0
0 3 0
0 4 0
1 0 0
1 2 0
1 3 0
1 4 0
2 0 0
2 1 0
2 3 0
2 4 0
3 0 0
3 1 0
3 2 0
3 4 0
4 0 0
4 1 0
4 2 0
4 3 0
2 8 6 1 20
0 1 0
0 2 0
0 3 0
0 4 0
1 0 0
1 2 0
1 3 0
1 4 0
2 0 0
2 1 0
2 3 0
2 4 0
3 0 0
3 1 0
3 2 0
3 4 0
4 0 0
4 1 0
4 2 0
4 3 0
2 8 7 1 20
0 1 0
0 2 0
0 3 0
0 4 0
1 0 0
1 2 0
1 3 0
1 4 0
2 0 0
2 1 0
2 3 0
2 4 0
3 0 0
3 1 0
3 2 0
3 4 0
4 0 0
4 1 0
4 2 0
4 3 0
2 8 9 1 20
0 1 0
0 2 0
0 3 0
0 4 0
1 0 0
1 2 0
1 3 0
1 4 0
2 0 0
2 1 0
2 3 0
2 4 0
3 0 0
3 1 0
3 2 0
3 4 0
4 0 0
4 1 0
4 2 0
4 3 0
2 5 6 1 20
0 1 0
0 2 0
0 3 0
0 4 0
1 0 0
1 2 0
1 3 0
1 4 0
2 0 0
2 1 0
2 3 0
2 4 0
3 0 0
3 1 0
3 2 0
3 4 0
4 0 0
4 1 0
4 2 0
4 3 0
2 5 7 1 20
0 1 0
0 2 0
0 3 0
0 4 0
1 0 0
1 2 0
1 3 0
1 4 0
2 0 0
2 1 0
2 3 0
2 4 0
3 0 0
3 1 0
3 2 0
3 4 0
4 0 0
4 1 0
4 2 0
4 3 0
2 5 9 1 20
0 1 0
0 2 0
0 3 0
0 4 0
1 0 0
1 2 0
1 3 0
1 4 0
2 0 0
2 1 0
2 3 0
2 4 0
3 0 0
3 1 0
3 2 0
3 4 0
4 0 0
4 1 0
4 2 0
4 3 0
2 6 7 1 20
0 1 0
0 2 0
0 3 0
0 4 0
1 0 0
1 2 0
1 3 0
1 4 0
2 0 0
2 1 0
2 3 0
2 4 0
3 0 0
3 1 0
3 2 0
3 4 0
4 0 0
4 1 0
4 2 0
4 3 0
2 6 9 1 20
0 1 0
0 2 0
0 3 0
0 4 0
1 0 0
1 2 0
1 3 0
1 4 0
2 0 0
2 1 0
2 3 0
2 4 0
3 0 0
3 1 0
3 2 0
3 4 0
4 0 0
4 1 0
4 2 0
4 3 0
2 7 9 1 20
0 1 0
0 2 0
0 3 0
0 4 0
1 0 0
1 2 0
1 3 0
1 4 0
2 0 0
2 1 0
2 3 0
2 4 0
3 0 0
3 1 0
3 2 0
3 4 0
4 0 0
4 1 0
4 2 0
4 3 0
